c 36_3_checker.cnf
c
c field = 36
c formula set type = 3_checker
c
p cnf 4 46
64 
66 
68 
-62 
65 
67 
69 
-63 
64 
66 
68 
-72 
65 
67 
69 
-73 
66 
68 
72 
-64 
67 
69 
73 
-65 
66 
68 
72 
-74 
67 
69 
73 
-75 
68 
72 
74 
-66 
69 
73 
75 
-67 
68 
72 
74 
-76 
69 
73 
75 
-77 
72 
74 
76 
-68 
73 
75 
77 
-69 
72 
74 
76 
-78 
73 
75 
77 
-79 
10 
40 
100 
-130 
11 
41 
101 
-131 
40 
100 
130 
-10 
41 
101 
131 
-11 
40 
100 
130 
-160 
41 
101 
131 
-161 
100 
130 
160 
-40 
101 
131 
161 
-41 
100 
130 
160 
-190 
101 
131 
161 
-191 
6 
38 
102 
-134 
7 
39 
103 
-135 
38 
102 
134 
-6 
39 
103 
135 
-7 
38 
102 
134 
-166 
39 
103 
135 
-167 
102 
134 
166 
-38 
103 
135 
167 
-39 
102 
134 
166 
-198 
103 
135 
167 
-199 
14 
42 
98 
-126 
15 
43 
99 
-127 
42 
98 
126 
-14 
43 
99 
127 
-15 
42 
98 
126 
-154 
43 
99 
127 
-155 
98 
126 
154 
-42 
99 
127 
155 
-43 
98 
126 
154 
-182 
99 
127 
155 
-183 
